proyfinal/src/viki/013/andrea/andrea-localstore/experimentInOfficeAgust.take6/worker_2/55ea5321-7bcf-4845-af91-b74f8472ff49.als.cnf.out
Reading from standard input... Use '--help' for help.
============================[ Problem Statistics ]=============================
|                                                                             |
|  Number of variables:         87638                                         |
|  Number of clauses:          161767                                         |
|  Parse time:                   0.04 s                                       |
|                                                                             |
============================[ Search Statistics ]==============================
| Conflicts |          ORIGINAL         |          LEARNT          | Progress |
|           |    Vars  Clauses Literals |    Limit  Clauses Lit/Cl |          |
===============================================================================
|       100 |   62046   103948   259762 |    38114      100      9 | 29.202 % |
|       250 |   62010   103915   259678 |    41925      247     24 | 29.243 % |
|       475 |   61983   103816   259414 |    46118      449     31 | 29.274 % |
|       812 |   61983   103717   259150 |    50730      771     39 | 29.274 % |
|      1318 |   61959   103621   258886 |    55803     1006     48 | 29.301 % |
|      2077 |   61959   103621   258886 |    61383     1765     71 | 29.301 % |
|      3216 |   61941   103547   258715 |    67521     2903     79 | 29.322 % |
|      4924 |   61917   103409   258403 |    74273     4304     73 | 29.349 % |
|      7486 |   61871   103188   257908 |    81701     6401     79 | 29.402 % |
===============================================================================
restarts              : 41
conflicts             : 9487           (7199 /sec)
decisions             : 31150          (0.00 % random) (23637 /sec)
propagations          : 13995060       (10619672 /sec)
conflict literals     : 637756         (50.60 % deleted)
Memory used           : 28.20 MB
CPU time              : 1.31784 s

UNSATISFIABLE
